20097596057867946255011,5,1,2,09,14,1,2,014,9,1,2,02,11,1,2,02,8,1,2,01,10,1,2,03,14,1,2,03,11,1,2,014,3,1,2,04,13,1,2,012,12,1,2,015,11,1,2,03,13,1,2,08,1,1,2,05,3,1,2,015,12,1,2,09,5,1,2,05,7,1,2,01,11,1,2,011,2,1,2,08,2,1,2,013,6,1,2,05,8,1,2,03,1,1,2,010,11,1,2,015,11,1,2,04,3,1,2,02,7,1,2,04,6,1,2,015,4,1,2,07,12,1,2,01,7,1,2,02,6,1,2,02,12,1,2,012,7,1,2,05,13,1,2,06,9,1,2,07,15,1,2,03,11,1,2,04,1,1,2,013,4,1,2,02,3,1,2,013,13,1,2,015,11,1,2,01,13,1,2,09,7,1,2,08,6,1,2,09,2,1,2,010,2,1,2,013,8,1,2,0